db/inputs/1593646410170208433204317644538420448.smt2
(set-logic QF_FP)
(declare-const x0 (_ FloatingPoint 11 53))
(declare-const x1 (_ FloatingPoint 11 53))
(declare-const x2 (_ FloatingPoint 11 53))
(declare-const x3 (_ FloatingPoint 11 53))
(declare-const x4 (_ FloatingPoint 11 53))
(declare-const x5 (_ FloatingPoint 11 53))
(declare-const x6 (_ FloatingPoint 11 53))
(declare-const x7 (_ FloatingPoint 11 53))
(declare-const x8 (_ FloatingPoint 11 53))
(declare-const x9 (_ FloatingPoint 11 53))
(assert (fp.eq (fp.div RNE x5 x3) (fp.neg x4)))
(assert (fp.leq (fp.div RNE x5 x2) (fp.mul RNE x9 x7)))
(assert (fp.geq (fp.div RNE x6 x2) (fp.add RNE x2 x2)))
(assert (fp.gt (fp.div RNE x9 x6) (fp.neg x7)))
(check-sat)
