db/data/1593646410170208433204317644538420448.z3.out
sat
-------------------
391.517659705
